************************************************************************
file with basedata            : mm6_.bas
initial value random generator: 21996
************************************************************************
projects                      :  1
jobs (incl. supersource/sink ):  12
horizon                       :  83
RESOURCES
  - renewable                 :  2   R
  - nonrenewable              :  2   N
  - doubly constrained        :  0   D
************************************************************************
PROJECT INFORMATION:
pronr.  #jobs rel.date duedate tardcost  MPM-Time
    1     10      0       16        2       16
************************************************************************
PRECEDENCE RELATIONS:
jobnr.    #modes  #successors   successors
   0        1          3           1   2   3
   1        3          1           8
   2        3          3           4   5   7
   3        3          2           6   7
   4        3          1          10
   5        3          1           6
   6        3          3           8   9  10
   7        3          1           9
   8        3          1          11
   9        3          1          11
  10        3          1          11
  11        1          0        
************************************************************************
REQUESTS/DURATIONS:
jobnr. mode duration  R 1  R 2  R 3  R 4  E(W 1)  E(W 2)
------------------------------------------------------------------------
  0      1     0       0    0    0    0     0       0
  1      1     4       9    0    5    9    36      56
  2      1     1       3    0    9    1     3      11
  3      1     3       0    3    3    6     9      27
  4      1     1       0    9   10    6     9      16
  5      1     3       2    0    6   10     6      48
  6      1     4       0    4    5    3    16      32
  7      1     1       0    9    8    7     9      15
  8      1     1       5    0    8    9     5      17
  9      1     2       3    0    6    5     6      22
 10      1     8       6    0    8    7    48      120
 11      1     0       0    0    0    0     0       0
************************************************************************
RESOURCEAVAILABILITIES:
  R 1  R 2
   18   114
************************************************************************
RESOURCE LIMITS:
jobnr.  l(R 1)  u(R 1)  l(R 2)  u(R 2)
------------------------------------------------------------------------
  0        0       0       0       0
  1        5       9       8      14
  2        2       3       6      11
  3        2       3       5       9
  4        5       9       8      16
  5        1       2       8      16
  6        2       4       5       8
  7        5       9       8      15
  8        3       5       9      17
  9        2       3       6      11
 10        3       6       8      15
 11        0       0       0       0
************************************************************************
SCENARIOS:
------------------------------------------------------------------------
RESOURCE k = 1
s = 1: (0, 36, 4, 7, 10, 4, 23, 5, 6, 8, 62, 0)
s = 2: (0, 29, 3, 13, 11, 10, 12, 9, 4, 5, 31, 0)
s = 3: (0, 45, 3, 8, 13, 6, 16, 9, 8, 7, 47, 0)
s = 4: (0, 31, 3, 8, 11, 5, 13, 7, 6, 5, 44, 0)
s = 5: (0, 31, 3, 9, 14, 4, 19, 9, 5, 7, 48, 0)
s = 6: (0, 53, 3, 7, 12, 7, 14, 6, 8, 9, 63, 0)
s = 7: (0, 34, 3, 12, 13, 6, 21, 8, 7, 9, 82, 0)
s = 8: (0, 26, 3, 6, 12, 8, 16, 11, 4, 8, 50, 0)
s = 9: (0, 49, 2, 9, 8, 7, 16, 7, 3, 5, 35, 0)
s = 10: (0, 47, 3, 11, 9, 8, 13, 6, 6, 8, 39, 0)
s = 11: (0, 24, 3, 12, 15, 8, 11, 6, 6, 4, 58, 0)
s = 12: (0, 35, 4, 9, 8, 6, 11, 7, 4, 4, 32, 0)
s = 13: (0, 28, 3, 11, 9, 8, 15, 9, 5, 9, 38, 0)
s = 14: (0, 38, 3, 7, 8, 8, 17, 8, 6, 10, 40, 0)
s = 15: (0, 38, 4, 8, 9, 9, 23, 7, 5, 7, 45, 0)
s = 16: (0, 28, 3, 6, 11, 7, 15, 12, 7, 5, 37, 0)
s = 17: (0, 43, 4, 10, 11, 5, 24, 13, 6, 9, 57, 0)
s = 18: (0, 48, 2, 8, 7, 4, 22, 14, 4, 5, 37, 0)
s = 19: (0, 36, 3, 10, 10, 10, 19, 6, 8, 7, 27, 0)
s = 20: (0, 20, 3, 7, 15, 5, 19, 9, 8, 4, 40, 0)
s = 21: (0, 27, 4, 6, 11, 6, 20, 6, 5, 5, 37, 0)
s = 22: (0, 52, 4, 13, 6, 7, 21, 9, 8, 6, 64, 0)
s = 23: (0, 34, 3, 10, 13, 5, 15, 13, 7, 5, 66, 0)
s = 24: (0, 32, 3, 6, 10, 8, 16, 9, 6, 6, 45, 0)
s = 25: (0, 54, 5, 10, 9, 5, 23, 9, 7, 6, 31, 0)
s = 26: (0, 43, 3, 7, 7, 8, 17, 7, 4, 8, 56, 0)
s = 27: (0, 49, 2, 10, 6, 9, 13, 7, 5, 6, 62, 0)
s = 28: (0, 48, 5, 11, 11, 6, 11, 8, 6, 4, 31, 0)
s = 29: (0, 47, 2, 13, 13, 4, 19, 6, 5, 7, 45, 0)
s = 30: (0, 34, 3, 8, 10, 6, 15, 9, 7, 7, 72, 0)
s = 31: (0, 34, 4, 15, 7, 8, 21, 8, 7, 11, 57, 0)
s = 32: (0, 64, 3, 11, 6, 7, 22, 6, 7, 5, 45, 0)
s = 33: (0, 31, 4, 7, 16, 5, 22, 12, 7, 7, 40, 0)
s = 34: (0, 28, 4, 7, 15, 6, 16, 14, 6, 9, 52, 0)
s = 35: (0, 50, 3, 10, 15, 6, 14, 10, 4, 6, 42, 0)
s = 36: (0, 34, 5, 13, 7, 8, 19, 9, 5, 8, 36, 0)
s = 37: (0, 25, 3, 8, 8, 5, 16, 13, 4, 8, 63, 0)
s = 38: (0, 37, 4, 8, 17, 6, 16, 6, 7, 7, 58, 0)
s = 39: (0, 52, 6, 15, 7, 5, 18, 7, 7, 7, 50, 0)
s = 40: (0, 25, 6, 8, 7, 8, 14, 15, 6, 11, 30, 0)
s = 41: (0, 34, 5, 7, 11, 5, 12, 11, 6, 6, 54, 0)
s = 42: (0, 33, 5, 7, 7, 6, 15, 12, 5, 6, 52, 0)
s = 43: (0, 52, 4, 13, 7, 6, 10, 9, 7, 4, 44, 0)
s = 44: (0, 45, 3, 9, 12, 5, 17, 6, 7, 5, 41, 0)
s = 45: (0, 46, 4, 10, 10, 6, 17, 7, 5, 5, 38, 0)
s = 46: (0, 33, 3, 11, 7, 4, 15, 13, 6, 5, 65, 0)
s = 47: (0, 47, 2, 9, 6, 5, 16, 6, 5, 7, 43, 0)
s = 48: (0, 37, 3, 8, 10, 4, 22, 8, 5, 5, 60, 0)
s = 49: (0, 46, 3, 7, 9, 4, 21, 12, 6, 4, 46, 0)
s = 50: (0, 36, 6, 9, 7, 5, 20, 7, 4, 6, 48, 0)
s = 51: (0, 26, 3, 13, 12, 6, 17, 8, 5, 5, 51, 0)
s = 52: (0, 25, 5, 9, 8, 5, 16, 8, 7, 8, 61, 0)
s = 53: (0, 33, 3, 11, 12, 5, 12, 9, 6, 5, 47, 0)
s = 54: (0, 46, 3, 8, 13, 6, 16, 9, 5, 4, 44, 0)
s = 55: (0, 39, 4, 6, 8, 4, 26, 8, 5, 7, 45, 0)
s = 56: (0, 32, 4, 13, 5, 4, 15, 13, 6, 9, 41, 0)
s = 57: (0, 44, 3, 11, 9, 6, 14, 8, 6, 7, 62, 0)
s = 58: (0, 30, 2, 6, 6, 4, 15, 8, 7, 6, 41, 0)
s = 59: (0, 24, 4, 8, 7, 6, 17, 10, 5, 5, 32, 0)
s = 60: (0, 50, 3, 9, 9, 6, 11, 6, 5, 6, 56, 0)
s = 61: (0, 32, 4, 12, 7, 6, 13, 7, 4, 5, 44, 0)
s = 62: (0, 41, 6, 7, 8, 4, 14, 7, 5, 5, 75, 0)
s = 63: (0, 35, 3, 11, 11, 7, 16, 8, 8, 8, 43, 0)
s = 64: (0, 20, 5, 10, 10, 12, 9, 7, 6, 8, 69, 0)
s = 65: (0, 41, 4, 9, 12, 4, 16, 16, 4, 7, 50, 0)
s = 66: (0, 48, 5, 11, 10, 6, 13, 12, 4, 6, 70, 0)
s = 67: (0, 35, 3, 10, 10, 9, 13, 11, 5, 8, 59, 0)
s = 68: (0, 40, 4, 8, 7, 4, 16, 12, 6, 5, 40, 0)
s = 69: (0, 30, 3, 14, 13, 6, 15, 9, 5, 10, 45, 0)
s = 70: (0, 36, 4, 7, 6, 8, 18, 7, 4, 5, 50, 0)
s = 71: (0, 42, 3, 11, 15, 6, 17, 10, 4, 5, 61, 0)
s = 72: (0, 45, 4, 6, 11, 7, 18, 8, 7, 6, 56, 0)
s = 73: (0, 43, 6, 7, 12, 10, 13, 7, 4, 5, 54, 0)
s = 74: (0, 34, 4, 13, 12, 7, 17, 8, 7, 10, 76, 0)
s = 75: (0, 28, 3, 7, 9, 6, 15, 7, 4, 6, 45, 0)
s = 76: (0, 58, 4, 14, 12, 7, 17, 9, 4, 5, 73, 0)
s = 77: (0, 58, 5, 9, 10, 9, 18, 12, 5, 6, 41, 0)
s = 78: (0, 34, 3, 9, 12, 6, 14, 8, 8, 7, 54, 0)
s = 79: (0, 27, 3, 8, 10, 9, 16, 11, 6, 6, 43, 0)
s = 80: (0, 29, 2, 8, 15, 4, 15, 6, 4, 6, 52, 0)
s = 81: (0, 26, 3, 10, 9, 5, 17, 8, 9, 10, 52, 0)
s = 82: (0, 48, 5, 8, 9, 6, 21, 14, 3, 8, 66, 0)
s = 83: (0, 30, 5, 10, 7, 5, 24, 8, 6, 9, 80, 0)
s = 84: (0, 24, 4, 7, 7, 7, 13, 9, 5, 5, 70, 0)
s = 85: (0, 33, 2, 11, 10, 5, 12, 6, 5, 8, 42, 0)
s = 86: (0, 48, 5, 12, 13, 7, 16, 9, 5, 5, 59, 0)
s = 87: (0, 42, 2, 11, 15, 4, 12, 9, 6, 7, 66, 0)
s = 88: (0, 56, 3, 9, 10, 4, 13, 9, 4, 8, 34, 0)
s = 89: (0, 28, 4, 11, 11, 6, 18, 8, 6, 9, 60, 0)
s = 90: (0, 48, 2, 13, 6, 5, 10, 14, 6, 6, 56, 0)
s = 91: (0, 44, 4, 7, 10, 5, 10, 8, 7, 7, 52, 0)
s = 92: (0, 37, 3, 11, 8, 8, 16, 9, 6, 5, 42, 0)
s = 93: (0, 49, 4, 7, 11, 9, 16, 9, 9, 4, 41, 0)
s = 94: (0, 43, 4, 6, 12, 6, 21, 6, 9, 4, 51, 0)
s = 95: (0, 42, 4, 7, 9, 7, 11, 7, 3, 5, 36, 0)
s = 96: (0, 38, 4, 8, 7, 7, 20, 7, 9, 7, 53, 0)
s = 97: (0, 56, 3, 9, 10, 4, 16, 12, 6, 6, 61, 0)
s = 98: (0, 30, 5, 6, 11, 9, 14, 12, 8, 4, 37, 0)
s = 99: (0, 45, 3, 8, 8, 5, 15, 7, 4, 11, 41, 0)
s = 100: (0, 51, 4, 10, 8, 10, 11, 13, 5, 9, 68, 0)
s = 101: (0, 27, 4, 10, 8, 5, 19, 13, 6, 6, 34, 0)
s = 102: (0, 33, 3, 8, 9, 6, 15, 8, 6, 6, 43, 0)
s = 103: (0, 19, 4, 7, 15, 5, 13, 15, 4, 5, 50, 0)
s = 104: (0, 21, 3, 11, 10, 5, 14, 10, 4, 7, 28, 0)
s = 105: (0, 40, 4, 12, 13, 7, 14, 8, 3, 6, 35, 0)
s = 106: (0, 23, 4, 6, 7, 8, 18, 12, 9, 4, 41, 0)
s = 107: (0, 22, 3, 10, 8, 7, 11, 15, 7, 9, 37, 0)
s = 108: (0, 37, 3, 8, 8, 7, 15, 6, 4, 10, 48, 0)
s = 109: (0, 39, 2, 8, 10, 5, 24, 6, 3, 4, 40, 0)
s = 110: (0, 54, 3, 6, 12, 8, 13, 10, 6, 9, 49, 0)
s = 111: (0, 33, 5, 9, 14, 7, 18, 13, 4, 7, 36, 0)
s = 112: (0, 37, 4, 9, 11, 7, 12, 8, 4, 5, 45, 0)
s = 113: (0, 25, 4, 11, 5, 8, 25, 10, 5, 7, 38, 0)
s = 114: (0, 30, 4, 9, 6, 8, 29, 9, 5, 4, 58, 0)
s = 115: (0, 29, 3, 12, 13, 6, 12, 7, 5, 5, 64, 0)
s = 116: (0, 32, 4, 11, 11, 7, 12, 9, 5, 10, 59, 0)
s = 117: (0, 37, 2, 14, 9, 8, 18, 9, 6, 7, 30, 0)
s = 118: (0, 26, 3, 13, 6, 4, 19, 13, 6, 4, 54, 0)
s = 119: (0, 40, 4, 10, 12, 7, 12, 13, 6, 7, 58, 0)
s = 120: (0, 35, 3, 9, 8, 4, 9, 10, 3, 8, 40, 0)
s = 121: (0, 26, 4, 6, 8, 9, 12, 15, 6, 7, 52, 0)
s = 122: (0, 31, 5, 9, 11, 6, 15, 13, 4, 9, 47, 0)
s = 123: (0, 26, 3, 7, 8, 9, 22, 11, 4, 9, 42, 0)
s = 124: (0, 47, 2, 12, 10, 4, 12, 9, 7, 6, 50, 0)
s = 125: (0, 55, 4, 9, 8, 4, 17, 12, 6, 4, 59, 0)
s = 126: (0, 42, 4, 14, 13, 6, 13, 11, 4, 8, 39, 0)
s = 127: (0, 33, 4, 7, 9, 7, 18, 7, 6, 9, 45, 0)
s = 128: (0, 27, 5, 7, 7, 9, 16, 8, 7, 6, 64, 0)
s = 129: (0, 28, 6, 11, 12, 5, 25, 10, 6, 5, 35, 0)
s = 130: (0, 25, 3, 6, 6, 7, 15, 12, 4, 8, 43, 0)
s = 131: (0, 41, 4, 6, 11, 6, 16, 8, 5, 4, 62, 0)
s = 132: (0, 26, 3, 8, 9, 6, 14, 15, 5, 5, 36, 0)
s = 133: (0, 26, 3, 11, 7, 8, 23, 10, 4, 6, 43, 0)
s = 134: (0, 45, 3, 6, 9, 6, 13, 10, 8, 6, 36, 0)
s = 135: (0, 57, 4, 10, 12, 7, 19, 13, 8, 5, 49, 0)
s = 136: (0, 37, 3, 9, 10, 4, 12, 12, 5, 5, 36, 0)
s = 137: (0, 41, 3, 11, 7, 7, 16, 8, 5, 7, 31, 0)
s = 138: (0, 30, 6, 9, 5, 5, 20, 11, 3, 5, 37, 0)
s = 139: (0, 48, 3, 11, 10, 6, 12, 12, 5, 7, 41, 0)
s = 140: (0, 47, 3, 8, 11, 6, 20, 10, 5, 5, 65, 0)
s = 141: (0, 33, 3, 7, 8, 8, 14, 9, 4, 7, 44, 0)
s = 142: (0, 22, 3, 11, 10, 8, 18, 9, 4, 4, 54, 0)
s = 143: (0, 30, 4, 11, 13, 4, 20, 9, 7, 6, 49, 0)
s = 144: (0, 35, 3, 6, 12, 5, 26, 13, 5, 4, 49, 0)
s = 145: (0, 56, 3, 7, 6, 7, 19, 9, 7, 4, 77, 0)
s = 146: (0, 25, 4, 8, 5, 4, 26, 5, 5, 7, 56, 0)
s = 147: (0, 47, 3, 8, 8, 5, 18, 12, 4, 5, 46, 0)
s = 148: (0, 30, 3, 7, 14, 5, 15, 8, 5, 4, 55, 0)
s = 149: (0, 23, 5, 15, 11, 8, 15, 10, 5, 6, 35, 0)
s = 150: (0, 35, 4, 8, 9, 7, 18, 13, 5, 5, 48, 0)
s = 151: (0, 27, 3, 12, 10, 7, 14, 9, 9, 4, 42, 0)
s = 152: (0, 31, 4, 11, 8, 7, 23, 10, 6, 5, 60, 0)
s = 153: (0, 42, 2, 10, 7, 7, 16, 14, 7, 4, 48, 0)
s = 154: (0, 31, 3, 8, 7, 8, 15, 12, 3, 7, 40, 0)
s = 155: (0, 46, 3, 7, 6, 9, 17, 10, 5, 8, 88, 0)
s = 156: (0, 44, 5, 12, 10, 6, 22, 14, 8, 5, 74, 0)
s = 157: (0, 33, 4, 8, 12, 6, 19, 7, 7, 7, 63, 0)
s = 158: (0, 38, 4, 8, 12, 5, 21, 6, 3, 4, 56, 0)
s = 159: (0, 31, 3, 13, 7, 6, 16, 6, 6, 10, 34, 0)
s = 160: (0, 34, 3, 9, 13, 7, 17, 8, 3, 8, 45, 0)
s = 161: (0, 33, 3, 12, 10, 4, 13, 13, 6, 8, 53, 0)
s = 162: (0, 35, 4, 16, 10, 5, 12, 13, 5, 6, 30, 0)
s = 163: (0, 32, 5, 7, 7, 10, 23, 14, 5, 9, 48, 0)
s = 164: (0, 60, 4, 11, 11, 7, 14, 11, 6, 9, 57, 0)
s = 165: (0, 28, 5, 9, 7, 7, 13, 11, 4, 7, 28, 0)
s = 166: (0, 49, 4, 11, 10, 7, 15, 10, 4, 4, 44, 0)
s = 167: (0, 19, 2, 11, 8, 5, 19, 10, 8, 6, 71, 0)
s = 168: (0, 28, 3, 13, 12, 8, 16, 9, 5, 6, 39, 0)
s = 169: (0, 36, 4, 9, 8, 7, 11, 10, 6, 7, 44, 0)
s = 170: (0, 41, 3, 10, 8, 5, 14, 7, 3, 7, 60, 0)
s = 171: (0, 50, 4, 13, 13, 7, 13, 6, 7, 6, 39, 0)
s = 172: (0, 27, 4, 7, 9, 5, 16, 12, 5, 10, 39, 0)
s = 173: (0, 42, 3, 11, 9, 9, 14, 10, 6, 9, 38, 0)
s = 174: (0, 47, 4, 10, 8, 6, 11, 6, 5, 7, 47, 0)
s = 175: (0, 21, 4, 11, 10, 6, 22, 14, 6, 7, 31, 0)
s = 176: (0, 22, 3, 10, 6, 6, 16, 6, 5, 7, 77, 0)
s = 177: (0, 36, 4, 7, 15, 10, 13, 6, 3, 6, 56, 0)
s = 178: (0, 26, 4, 10, 8, 5, 16, 12, 3, 6, 38, 0)
s = 179: (0, 27, 2, 11, 7, 8, 13, 9, 6, 8, 40, 0)
s = 180: (0, 33, 5, 8, 6, 7, 19, 13, 4, 8, 35, 0)
s = 181: (0, 27, 3, 8, 8, 7, 15, 6, 4, 10, 48, 0)
s = 182: (0, 33, 3, 7, 8, 7, 13, 12, 6, 8, 58, 0)
s = 183: (0, 29, 4, 6, 6, 4, 9, 15, 4, 4, 31, 0)
s = 184: (0, 43, 3, 6, 6, 6, 18, 11, 5, 5, 56, 0)
s = 185: (0, 35, 4, 8, 6, 8, 23, 6, 10, 5, 43, 0)
s = 186: (0, 32, 4, 14, 17, 10, 18, 8, 8, 10, 53, 0)
s = 187: (0, 50, 5, 6, 10, 5, 13, 11, 5, 5, 52, 0)
s = 188: (0, 38, 4, 15, 10, 8, 25, 10, 8, 6, 39, 0)
s = 189: (0, 28, 5, 9, 12, 6, 23, 9, 6, 6, 44, 0)
s = 190: (0, 49, 4, 11, 13, 5, 15, 10, 5, 5, 41, 0)
s = 191: (0, 36, 4, 9, 13, 5, 18, 11, 5, 7, 36, 0)
s = 192: (0, 21, 5, 9, 7, 5, 19, 15, 6, 7, 46, 0)
s = 193: (0, 58, 5, 11, 8, 7, 9, 10, 7, 6, 62, 0)
s = 194: (0, 23, 3, 9, 13, 4, 19, 11, 7, 6, 42, 0)
s = 195: (0, 39, 3, 11, 8, 9, 11, 7, 5, 7, 54, 0)
s = 196: (0, 39, 3, 12, 11, 6, 13, 13, 5, 5, 37, 0)
s = 197: (0, 24, 3, 10, 11, 7, 17, 10, 8, 6, 28, 0)
s = 198: (0, 25, 2, 7, 9, 5, 20, 8, 5, 7, 50, 0)
s = 199: (0, 21, 2, 7, 7, 5, 14, 8, 4, 9, 36, 0)
s = 200: (0, 40, 4, 8, 10, 6, 13, 8, 8, 8, 53, 0)
------------------------------------------------------------------------
RESOURCE k = 2
s = 1: (0, 55, 15, 19, 18, 30, 46, 9, 18, 29, 153, 0)
s = 2: (0, 45, 9, 37, 19, 75, 23, 15, 14, 18, 77, 0)
s = 3: (0, 69, 10, 22, 23, 42, 32, 14, 26, 24, 118, 0)
s = 4: (0, 48, 9, 22, 19, 36, 26, 11, 19, 16, 108, 0)
s = 5: (0, 48, 9, 25, 25, 32, 37, 15, 17, 23, 118, 0)
s = 6: (0, 82, 10, 20, 20, 55, 28, 10, 26, 32, 158, 0)
s = 7: (0, 53, 10, 34, 22, 44, 41, 13, 22, 32, 205, 0)
s = 8: (0, 41, 9, 16, 21, 59, 32, 19, 12, 30, 123, 0)
s = 9: (0, 75, 7, 27, 14, 55, 32, 11, 10, 17, 88, 0)
s = 10: (0, 73, 11, 33, 16, 57, 26, 10, 18, 29, 96, 0)
s = 11: (0, 37, 8, 34, 27, 62, 22, 10, 20, 13, 144, 0)
s = 12: (0, 54, 14, 25, 13, 47, 22, 11, 12, 15, 80, 0)
s = 13: (0, 43, 8, 33, 16, 63, 30, 15, 16, 30, 93, 0)
s = 14: (0, 58, 11, 20, 14, 57, 33, 13, 21, 35, 99, 0)
s = 15: (0, 59, 13, 24, 15, 66, 45, 11, 17, 25, 111, 0)
s = 16: (0, 43, 8, 18, 19, 49, 29, 20, 24, 17, 92, 0)
s = 17: (0, 66, 15, 29, 19, 35, 48, 21, 18, 30, 142, 0)
s = 18: (0, 74, 8, 24, 12, 31, 44, 23, 13, 18, 91, 0)
s = 19: (0, 56, 10, 29, 17, 73, 37, 10, 26, 24, 66, 0)
s = 20: (0, 31, 8, 19, 27, 34, 37, 15, 26, 13, 99, 0)
s = 21: (0, 42, 14, 18, 19, 43, 40, 9, 14, 17, 91, 0)
s = 22: (0, 80, 15, 37, 10, 53, 41, 15, 28, 19, 159, 0)
s = 23: (0, 52, 10, 30, 23, 33, 30, 22, 21, 18, 165, 0)
s = 24: (0, 49, 11, 16, 17, 61, 32, 14, 20, 21, 111, 0)
s = 25: (0, 84, 18, 30, 16, 33, 46, 14, 22, 19, 76, 0)
s = 26: (0, 66, 9, 21, 11, 61, 33, 12, 11, 29, 138, 0)
s = 27: (0, 75, 7, 28, 11, 69, 25, 12, 15, 20, 155, 0)
s = 28: (0, 74, 16, 31, 19, 46, 21, 14, 18, 12, 76, 0)
s = 29: (0, 72, 7, 38, 23, 28, 38, 10, 15, 24, 111, 0)
s = 30: (0, 52, 11, 22, 18, 48, 29, 14, 22, 24, 180, 0)
s = 31: (0, 52, 14, 43, 12, 64, 41, 13, 22, 38, 142, 0)
s = 32: (0, 99, 11, 31, 9, 52, 44, 10, 21, 17, 113, 0)
s = 33: (0, 47, 12, 20, 28, 38, 43, 20, 22, 24, 99, 0)
s = 34: (0, 44, 13, 20, 26, 45, 31, 23, 18, 33, 130, 0)
s = 35: (0, 78, 11, 28, 26, 46, 27, 17, 12, 20, 104, 0)
s = 36: (0, 53, 16, 37, 12, 57, 37, 15, 16, 28, 88, 0)
s = 37: (0, 38, 9, 24, 14, 35, 32, 21, 14, 27, 157, 0)
s = 38: (0, 57, 14, 23, 30, 45, 32, 10, 22, 24, 144, 0)
s = 39: (0, 80, 19, 44, 12, 38, 35, 11, 23, 24, 125, 0)
s = 40: (0, 38, 19, 24, 13, 57, 27, 25, 20, 39, 75, 0)
s = 41: (0, 53, 17, 21, 19, 36, 23, 17, 18, 20, 135, 0)
s = 42: (0, 52, 16, 21, 13, 45, 29, 19, 14, 22, 130, 0)
s = 43: (0, 81, 15, 37, 11, 42, 19, 15, 23, 13, 109, 0)
s = 44: (0, 70, 11, 27, 21, 40, 34, 9, 24, 16, 101, 0)
s = 45: (0, 72, 13, 30, 17, 47, 34, 11, 16, 16, 95, 0)
s = 46: (0, 51, 9, 31, 11, 27, 30, 22, 19, 17, 162, 0)
s = 47: (0, 72, 7, 26, 10, 37, 32, 9, 16, 23, 107, 0)
s = 48: (0, 57, 10, 22, 17, 32, 44, 13, 16, 18, 150, 0)
s = 49: (0, 71, 8, 20, 15, 29, 41, 20, 18, 15, 113, 0)
s = 50: (0, 56, 20, 25, 12, 35, 39, 11, 14, 21, 119, 0)
s = 51: (0, 41, 10, 37, 22, 42, 33, 12, 17, 18, 127, 0)
s = 52: (0, 39, 17, 25, 13, 34, 31, 12, 22, 28, 151, 0)
s = 53: (0, 52, 8, 33, 21, 35, 24, 15, 20, 16, 118, 0)
s = 54: (0, 72, 11, 24, 23, 46, 32, 15, 15, 15, 110, 0)
s = 55: (0, 61, 12, 16, 14, 32, 52, 14, 16, 25, 111, 0)
s = 56: (0, 49, 13, 39, 9, 26, 29, 21, 19, 32, 101, 0)
s = 57: (0, 69, 9, 33, 16, 46, 28, 14, 18, 26, 154, 0)
s = 58: (0, 46, 8, 17, 11, 30, 29, 12, 21, 21, 103, 0)
s = 59: (0, 37, 14, 22, 12, 45, 33, 17, 15, 18, 79, 0)
s = 60: (0, 78, 11, 25, 16, 43, 22, 10, 16, 22, 140, 0)
s = 61: (0, 50, 14, 34, 12, 44, 25, 12, 13, 15, 109, 0)
s = 62: (0, 64, 19, 21, 14, 30, 28, 12, 15, 16, 188, 0)
s = 63: (0, 54, 8, 32, 20, 55, 31, 13, 27, 29, 106, 0)
s = 64: (0, 31, 15, 30, 17, 89, 17, 11, 20, 28, 172, 0)
s = 65: (0, 63, 14, 26, 21, 31, 32, 26, 12, 26, 124, 0)
s = 66: (0, 74, 16, 33, 18, 41, 25, 19, 14, 20, 173, 0)
s = 67: (0, 54, 9, 29, 17, 72, 26, 17, 17, 29, 147, 0)
s = 68: (0, 62, 12, 22, 11, 30, 32, 20, 19, 16, 99, 0)
s = 69: (0, 46, 8, 41, 23, 48, 29, 15, 15, 34, 112, 0)
s = 70: (0, 56, 12, 21, 10, 59, 36, 12, 11, 17, 124, 0)
s = 71: (0, 65, 11, 33, 26, 42, 33, 16, 13, 16, 151, 0)
s = 72: (0, 70, 12, 18, 19, 54, 36, 12, 24, 22, 139, 0)
s = 73: (0, 67, 22, 20, 20, 74, 25, 12, 12, 17, 135, 0)
s = 74: (0, 53, 12, 38, 21, 56, 34, 13, 23, 34, 189, 0)
s = 75: (0, 44, 11, 19, 16, 43, 30, 11, 13, 20, 113, 0)
s = 76: (0, 91, 13, 41, 21, 55, 33, 15, 14, 16, 181, 0)
s = 77: (0, 90, 15, 27, 17, 69, 36, 20, 15, 21, 103, 0)
s = 78: (0, 53, 11, 25, 20, 44, 28, 13, 25, 25, 133, 0)
s = 79: (0, 42, 11, 24, 18, 69, 31, 19, 19, 20, 108, 0)
s = 80: (0, 45, 7, 24, 27, 31, 29, 9, 14, 19, 128, 0)
s = 81: (0, 41, 10, 29, 16, 34, 34, 12, 28, 36, 129, 0)
s = 82: (0, 75, 17, 24, 15, 45, 42, 23, 10, 29, 165, 0)
s = 83: (0, 47, 15, 30, 12, 38, 47, 12, 18, 33, 200, 0)
s = 84: (0, 37, 14, 19, 11, 49, 25, 15, 16, 15, 173, 0)
s = 85: (0, 50, 8, 33, 18, 35, 23, 10, 15, 27, 104, 0)
s = 86: (0, 75, 15, 34, 22, 53, 32, 15, 17, 18, 148, 0)
s = 87: (0, 65, 7, 31, 25, 29, 24, 15, 18, 26, 165, 0)
s = 88: (0, 86, 11, 26, 17, 32, 26, 14, 13, 26, 83, 0)
s = 89: (0, 44, 12, 32, 20, 48, 35, 12, 18, 32, 150, 0)
s = 90: (0, 75, 7, 38, 10, 38, 20, 24, 18, 20, 140, 0)
s = 91: (0, 68, 14, 20, 17, 39, 20, 14, 21, 26, 130, 0)
s = 92: (0, 57, 11, 33, 13, 64, 31, 14, 20, 16, 105, 0)
s = 93: (0, 75, 14, 19, 19, 69, 31, 15, 28, 15, 102, 0)
s = 94: (0, 66, 15, 18, 20, 42, 42, 10, 28, 14, 126, 0)
s = 95: (0, 65, 13, 20, 15, 50, 22, 11, 10, 17, 89, 0)
s = 96: (0, 58, 13, 24, 13, 53, 39, 11, 28, 25, 131, 0)
s = 97: (0, 87, 9, 27, 18, 32, 32, 20, 20, 20, 151, 0)
s = 98: (0, 46, 15, 17, 20, 71, 28, 20, 25, 15, 92, 0)
s = 99: (0, 70, 10, 23, 14, 39, 30, 11, 14, 39, 101, 0)
s = 100: (0, 79, 13, 29, 13, 74, 22, 22, 14, 31, 170, 0)
s = 101: (0, 42, 12, 29, 15, 35, 38, 22, 18, 21, 84, 0)
s = 102: (0, 51, 10, 23, 15, 43, 30, 14, 18, 19, 107, 0)
s = 103: (0, 30, 13, 21, 27, 36, 25, 25, 11, 17, 124, 0)
s = 104: (0, 32, 9, 32, 18, 33, 28, 16, 13, 25, 68, 0)
s = 105: (0, 62, 15, 34, 23, 49, 27, 12, 10, 21, 86, 0)
s = 106: (0, 35, 15, 16, 12, 60, 36, 20, 30, 12, 102, 0)
s = 107: (0, 34, 11, 28, 15, 49, 21, 24, 22, 31, 91, 0)
s = 108: (0, 57, 9, 22, 13, 54, 30, 10, 12, 36, 120, 0)
s = 109: (0, 61, 7, 22, 18, 34, 48, 10, 10, 15, 100, 0)
s = 110: (0, 84, 10, 18, 22, 61, 26, 16, 18, 31, 123, 0)
s = 111: (0, 50, 17, 25, 24, 53, 36, 22, 13, 24, 89, 0)
s = 112: (0, 57, 12, 25, 20, 51, 24, 13, 11, 18, 112, 0)
s = 113: (0, 39, 14, 32, 9, 60, 49, 17, 16, 24, 94, 0)
s = 114: (0, 46, 12, 25, 10, 64, 57, 15, 16, 13, 144, 0)
s = 115: (0, 45, 11, 35, 23, 45, 23, 12, 15, 18, 160, 0)
s = 116: (0, 50, 12, 33, 19, 54, 23, 15, 17, 36, 147, 0)
s = 117: (0, 57, 6, 41, 16, 60, 36, 15, 18, 26, 74, 0)
s = 118: (0, 41, 10, 38, 11, 31, 38, 21, 19, 12, 133, 0)
s = 119: (0, 62, 14, 28, 21, 56, 24, 21, 19, 24, 143, 0)
s = 120: (0, 55, 11, 26, 14, 29, 18, 16, 10, 29, 100, 0)
s = 121: (0, 40, 12, 16, 14, 65, 24, 25, 18, 23, 130, 0)
s = 122: (0, 47, 17, 27, 20, 46, 30, 22, 13, 33, 116, 0)
s = 123: (0, 40, 8, 20, 14, 72, 44, 18, 13, 30, 105, 0)
s = 124: (0, 73, 7, 36, 17, 27, 24, 14, 24, 21, 124, 0)
s = 125: (0, 86, 12, 27, 14, 32, 33, 20, 18, 14, 148, 0)
s = 126: (0, 65, 12, 40, 23, 43, 25, 17, 12, 29, 98, 0)
s = 127: (0, 51, 14, 20, 16, 55, 35, 11, 20, 33, 113, 0)
s = 128: (0, 42, 16, 21, 11, 68, 31, 14, 24, 21, 160, 0)
s = 129: (0, 44, 19, 31, 21, 36, 50, 16, 18, 18, 87, 0)
s = 130: (0, 39, 8, 18, 11, 52, 29, 19, 13, 28, 107, 0)
s = 131: (0, 63, 12, 17, 19, 43, 31, 12, 16, 15, 153, 0)
s = 132: (0, 40, 9, 22, 15, 42, 27, 25, 16, 19, 89, 0)
s = 133: (0, 40, 10, 33, 12, 63, 45, 16, 12, 20, 107, 0)
s = 134: (0, 70, 10, 18, 16, 48, 26, 16, 25, 21, 90, 0)
s = 135: (0, 88, 14, 30, 21, 56, 38, 22, 27, 17, 121, 0)
s = 136: (0, 57, 10, 26, 17, 29, 23, 20, 16, 16, 89, 0)
s = 137: (0, 64, 10, 31, 12, 52, 32, 14, 14, 24, 76, 0)
s = 138: (0, 47, 19, 25, 9, 34, 39, 17, 11, 18, 92, 0)
s = 139: (0, 74, 10, 33, 18, 47, 24, 20, 16, 23, 102, 0)
s = 140: (0, 73, 11, 24, 20, 41, 39, 16, 17, 19, 162, 0)
s = 141: (0, 51, 11, 20, 13, 64, 27, 14, 14, 26, 108, 0)
s = 142: (0, 34, 10, 31, 17, 62, 36, 15, 12, 14, 134, 0)
s = 143: (0, 47, 12, 32, 22, 29, 39, 15, 24, 22, 121, 0)
s = 144: (0, 54, 10, 16, 21, 36, 51, 21, 15, 15, 121, 0)
s = 145: (0, 86, 10, 20, 11, 52, 38, 15, 23, 14, 191, 0)
s = 146: (0, 38, 13, 22, 9, 31, 51, 9, 14, 24, 139, 0)
s = 147: (0, 73, 10, 24, 14, 35, 36, 20, 11, 19, 115, 0)
s = 148: (0, 46, 8, 20, 24, 34, 29, 13, 17, 14, 138, 0)
s = 149: (0, 36, 15, 43, 18, 62, 29, 16, 17, 20, 87, 0)
s = 150: (0, 55, 13, 24, 15, 56, 36, 22, 15, 17, 118, 0)
s = 151: (0, 42, 11, 36, 18, 54, 28, 15, 29, 14, 105, 0)
s = 152: (0, 49, 12, 31, 13, 55, 46, 16, 18, 18, 148, 0)
s = 153: (0, 65, 7, 30, 12, 52, 31, 24, 23, 14, 120, 0)
s = 154: (0, 48, 9, 23, 12, 63, 30, 20, 10, 23, 100, 0)
s = 155: (0, 72, 11, 21, 10, 69, 34, 16, 16, 29, 219, 0)
s = 156: (0, 68, 16, 35, 18, 45, 43, 23, 27, 18, 183, 0)
s = 157: (0, 52, 14, 23, 20, 47, 38, 11, 22, 25, 158, 0)
s = 158: (0, 59, 14, 24, 22, 39, 41, 10, 10, 12, 140, 0)
s = 159: (0, 48, 9, 38, 12, 46, 31, 9, 18, 34, 85, 0)
s = 160: (0, 52, 9, 26, 23, 53, 34, 13, 9, 29, 112, 0)
s = 161: (0, 51, 10, 35, 18, 30, 25, 21, 20, 28, 132, 0)
s = 162: (0, 54, 12, 48, 18, 37, 24, 21, 17, 22, 73, 0)
s = 163: (0, 50, 17, 21, 12, 73, 45, 23, 15, 30, 119, 0)
s = 164: (0, 93, 14, 33, 20, 50, 28, 19, 21, 30, 141, 0)
s = 165: (0, 43, 15, 26, 12, 51, 26, 17, 11, 26, 70, 0)
s = 166: (0, 76, 14, 31, 18, 51, 30, 16, 14, 13, 109, 0)
s = 167: (0, 30, 7, 31, 13, 33, 38, 16, 26, 21, 176, 0)
s = 168: (0, 44, 8, 38, 21, 58, 32, 14, 16, 21, 98, 0)
s = 169: (0, 56, 12, 25, 13, 54, 22, 16, 20, 23, 110, 0)
s = 170: (0, 64, 11, 30, 14, 38, 28, 11, 10, 24, 148, 0)
s = 171: (0, 78, 15, 38, 22, 56, 25, 10, 24, 19, 97, 0)
s = 172: (0, 42, 13, 19, 16, 35, 31, 20, 15, 34, 97, 0)
s = 173: (0, 65, 9, 31, 16, 71, 28, 17, 20, 33, 95, 0)
s = 174: (0, 73, 13, 29, 13, 46, 21, 10, 16, 24, 117, 0)
s = 175: (0, 32, 15, 32, 17, 42, 44, 22, 19, 23, 76, 0)
s = 176: (0, 34, 10, 28, 11, 43, 31, 10, 15, 25, 191, 0)
s = 177: (0, 56, 13, 20, 27, 77, 25, 9, 11, 21, 140, 0)
s = 178: (0, 40, 14, 29, 14, 39, 32, 19, 11, 20, 94, 0)
s = 179: (0, 41, 8, 32, 13, 59, 26, 14, 19, 29, 100, 0)
s = 180: (0, 51, 18, 22, 10, 55, 37, 21, 14, 27, 87, 0)
s = 181: (0, 42, 10, 23, 14, 56, 29, 10, 13, 34, 120, 0)
s = 182: (0, 51, 11, 20, 13, 51, 25, 19, 18, 26, 143, 0)
s = 183: (0, 45, 14, 17, 10, 32, 18, 24, 11, 14, 77, 0)
s = 184: (0, 67, 9, 18, 10, 41, 35, 17, 16, 17, 138, 0)
s = 185: (0, 54, 13, 23, 10, 61, 45, 10, 34, 18, 107, 0)
s = 186: (0, 49, 14, 40, 31, 77, 35, 13, 25, 36, 132, 0)
s = 187: (0, 77, 15, 17, 18, 37, 25, 18, 17, 16, 130, 0)
s = 188: (0, 60, 13, 43, 17, 62, 50, 16, 25, 21, 98, 0)
s = 189: (0, 44, 16, 25, 22, 41, 45, 14, 19, 19, 109, 0)
s = 190: (0, 77, 12, 32, 22, 40, 29, 16, 15, 17, 101, 0)
s = 191: (0, 56, 12, 27, 22, 36, 35, 18, 16, 24, 89, 0)
s = 192: (0, 32, 17, 26, 12, 38, 38, 25, 21, 25, 115, 0)
s = 193: (0, 90, 16, 32, 14, 49, 17, 16, 24, 22, 155, 0)
s = 194: (0, 35, 11, 27, 22, 27, 37, 19, 23, 20, 104, 0)
s = 195: (0, 61, 8, 33, 15, 69, 22, 11, 15, 24, 134, 0)
s = 196: (0, 60, 10, 36, 19, 44, 25, 21, 15, 17, 92, 0)
s = 197: (0, 37, 10, 30, 20, 49, 34, 16, 27, 20, 68, 0)
s = 198: (0, 39, 8, 20, 16, 37, 40, 13, 15, 23, 123, 0)
s = 199: (0, 33, 7, 20, 12, 34, 27, 13, 14, 33, 89, 0)
s = 200: (0, 61, 12, 24, 18, 46, 26, 13, 26, 28, 133, 0)
************************************************************************
ES/LS-VALUES:
jobnr.   ES(i)    LS(i)
------------------------------------------------------------------------
  0        0        0
  1        0       73
  2        0       52
  3        0       54
  4        2       66
  5        2       54
  6        8       60
  7        5       77
  8       15       81
  9       15       79
 10       15       68
 11       29       83
************************************************************************
BIG-M-VALUES:
M1 = 58, M2 = 307
************************************************************************
